42
1 0 8
2 0 31
2 1 38
3 0 65
3 1 51
3 2 68
4 0 46
4 1 27
4 2 29
4 3 60
5 0 35
5 1 60
5 2 52
5 3 54
5 4 39
6 0 17
6 1 49
6 2 59
6 3 43
6 4 61
6 5 48
7 0 20
7 1 10
7 2 28
7 3 59
7 4 49
7 5 17
7 6 51
8 0 66
8 1 19
8 2 27
8 3 57
8 4 5
8 5 30
8 6 26
8 7 22
9 0 47
9 1 7
9 2 11
9 3 24
9 4 7
9 5 27
9 6 47
9 7 53
9 8 11
10 0 29
10 1 46
10 2 17
10 3 37
10 4 47
10 5 8
10 6 67
10 7 34
10 8 63
10 9 59
11 0 19
11 1 31
11 2 54
11 3 39
11 4 59
11 5 66
11 6 29
11 7 66
11 8 62
11 9 66
11 10 64
12 0 5
12 1 8
12 2 26
12 3 14
12 4 65
12 5 11
12 6 19
12 7 51
12 8 4
12 9 50
12 10 25
12 11 34
13 0 17
13 1 33
13 2 38
13 3 37
13 4 10
13 5 66
13 6 42
13 7 23
13 8 18
13 9 23
13 10 26
13 11 66
13 12 4
14 0 10
14 1 65
14 2 35
14 3 11
14 4 58
14 5 64
14 6 21
14 7 65
14 8 49
14 9 34
14 10 61
14 11 38
14 12 6
14 13 56
15 0 3
15 1 63
15 2 27
15 3 34
15 4 61
15 5 27
15 6 29
15 7 39
15 8 12
15 9 2
15 10 31
15 11 29
15 12 10
15 13 45
15 14 39
16 0 56
16 1 49
16 2 20
16 3 2
16 4 45
16 5 44
16 6 29
16 7 44
16 8 19
16 9 6
16 10 26
16 11 43
16 12 26
16 13 52
16 14 46
16 15 66
17 0 4
17 1 33
17 2 14
17 3 50
17 4 9
17 5 58
17 6 29
17 7 54
17 8 10
17 9 18
17 10 13
17 11 36
17 12 39
17 13 55
17 14 44
17 15 59
17 16 4
18 0 24
18 1 34
18 2 44
18 3 58
18 4 9
18 5 34
18 6 64
18 7 41
18 8 38
18 9 60
18 10 12
18 11 19
18 12 67
18 13 23
18 14 63
18 15 65
18 16 64
18 17 33
19 0 47
19 1 37
19 2 45
19 3 4
19 4 18
19 5 51
19 6 10
19 7 22
19 8 27
19 9 9
19 10 11
19 11 18
19 12 50
19 13 35
19 14 50
19 15 50
19 16 27
19 17 36
19 18 11
20 0 40
20 1 39
20 2 2
20 3 32
20 4 25
20 5 9
20 6 29
20 7 2
20 8 4
20 9 68
20 10 17
20 11 45
20 12 19
20 13 53
20 14 51
20 15 22
20 16 36
20 17 3
20 18 66
20 19 28
21 0 38
21 1 2
21 2 55
21 3 13
21 4 4
21 5 61
21 6 1
21 7 61
21 8 66
21 9 42
21 10 5
21 11 28
21 12 35
21 13 21
21 14 25
21 15 46
21 16 14
21 17 23
21 18 14
21 19 21
21 20 2
22 0 52
22 1 43
22 2 62
22 3 9
22 4 58
22 5 52
22 6 10
22 7 51
22 8 42
22 9 39
22 10 38
22 11 41
22 12 60
22 13 68
22 14 43
22 15 23
22 16 65
22 17 62
22 18 50
22 19 25
22 20 20
22 21 27
23 0 53
23 1 56
23 2 32
23 3 11
23 4 53
23 5 33
23 6 32
23 7 26
23 8 53
23 9 15
23 10 2
23 11 59
23 12 40
23 13 53
23 14 42
23 15 49
23 16 32
23 17 34
23 18 22
23 19 50
23 20 49
23 21 61
23 22 31
24 0 3
24 1 44
24 2 21
24 3 7
24 4 14
24 5 43
24 6 21
24 7 40
24 8 7
24 9 64
24 10 2
24 11 41
24 12 67
24 13 54
24 14 4
24 15 39
24 16 10
24 17 48
24 18 38
24 19 34
24 20 68
24 21 67
24 22 23
24 23 31
25 0 67
25 1 20
25 2 36
25 3 3
25 4 10
25 5 15
25 6 52
25 7 1
25 8 24
25 9 31
25 10 13
25 11 48
25 12 49
25 13 7
25 14 43
25 15 46
25 16 46
25 17 8
25 18 47
25 19 8
25 20 34
25 21 55
25 22 53
25 23 54
25 24 24
26 0 13
26 1 7
26 2 28
26 3 30
26 4 21
26 5 29
26 6 62
26 7 27
26 8 61
26 9 51
26 10 59
26 11 16
26 12 20
26 13 43
26 14 18
26 15 34
26 16 68
26 17 27
26 18 1
26 19 20
26 20 36
26 21 53
26 22 14
26 23 39
26 24 42
26 25 43
27 0 64
27 1 42
27 2 44
27 3 42
27 4 1
27 5 45
27 6 65
27 7 13
27 8 13
27 9 14
27 10 30
27 11 20
27 12 32
27 13 24
27 14 39
27 15 29
27 16 53
27 17 17
27 18 52
27 19 4
27 20 63
27 21 32
27 22 43
27 23 48
27 24 55
27 25 60
27 26 48
28 0 61
28 1 9
28 2 28
28 3 39
28 4 4
28 5 14
28 6 50
28 7 32
28 8 55
28 9 34
28 10 46
28 11 59
28 12 39
28 13 6
28 14 1
28 15 38
28 16 4
28 17 11
28 18 68
28 19 15
28 20 16
28 21 13
28 22 32
28 23 42
28 24 1
28 25 31
28 26 54
28 27 50
29 0 27
29 1 68
29 2 52
29 3 40
29 4 6
29 5 17
29 6 11
29 7 40
29 8 47
29 9 59
29 10 54
29 11 37
29 12 6
29 13 39
29 14 5
29 15 50
29 16 41
29 17 61
29 18 32
29 19 54
29 20 55
29 21 17
29 22 24
29 23 2
29 24 35
29 25 53
29 26 22
29 27 50
29 28 68
30 0 49
30 1 44
30 2 26
30 3 29
30 4 26
30 5 44
30 6 60
30 7 31
30 8 61
30 9 14
30 10 24
30 11 67
30 12 27
30 13 35
30 14 52
30 15 50
30 16 17
30 17 59
30 18 58
30 19 23
30 20 37
30 21 13
30 22 59
30 23 52
30 24 56
30 25 36
30 26 9
30 27 25
30 28 65
30 29 38
31 0 33
31 1 9
31 2 39
31 3 4
31 4 1
31 5 37
31 6 15
31 7 59
31 8 52
31 9 25
31 10 44
31 11 43
31 12 24
31 13 17
31 14 27
31 15 32
31 16 29
31 17 54
31 18 63
31 19 28
31 20 46
31 21 54
31 22 53
31 23 1
31 24 53
31 25 29
31 26 36
31 27 56
31 28 17
31 29 57
31 30 47
32 0 29
32 1 32
32 2 28
32 3 38
32 4 5
32 5 5
32 6 34
32 7 62
32 8 35
32 9 32
32 10 36
32 11 58
32 12 18
32 13 31
32 14 54
32 15 20
32 16 24
32 17 55
32 18 16
32 19 67
32 20 46
32 21 38
32 22 68
32 23 58
32 24 6
32 25 30
32 26 53
32 27 12
32 28 61
32 29 24
32 30 5
32 31 2
33 0 54
33 1 5
33 2 56
33 3 41
33 4 60
33 5 45
33 6 11
33 7 47
33 8 43
33 9 1
33 10 13
33 11 31
33 12 59
33 13 45
33 14 10
33 15 67
33 16 1
33 17 57
33 18 5
33 19 34
33 20 26
33 21 20
33 22 13
33 23 6
33 24 6
33 25 24
33 26 25
33 27 30
33 28 64
33 29 22
33 30 31
33 31 59
33 32 21
34 0 14
34 1 32
34 2 40
34 3 67
34 4 16
34 5 47
34 6 13
34 7 21
34 8 53
34 9 20
34 10 34
34 11 24
34 12 45
34 13 7
34 14 32
34 15 47
34 16 55
34 17 39
34 18 60
34 19 6
34 20 59
34 21 67
34 22 45
34 23 23
34 24 17
34 25 36
34 26 31
34 27 55
34 28 43
34 29 52
34 30 34
34 31 41
34 32 63
34 33 54
35 0 6
35 1 22
35 2 13
35 3 48
35 4 15
35 5 60
35 6 17
35 7 40
35 8 59
35 9 57
35 10 39
35 11 65
35 12 36
35 13 11
35 14 64
35 15 24
35 16 33
35 17 30
35 18 3
35 19 37
35 20 10
35 21 67
35 22 51
35 23 35
35 24 34
35 25 15
35 26 64
35 27 26
35 28 24
35 29 25
35 30 3
35 31 43
35 32 66
35 33 34
35 34 40
36 0 27
36 1 21
36 2 5
36 3 40
36 4 57
36 5 65
36 6 59
36 7 37
36 8 47
36 9 28
36 10 58
36 11 7
36 12 39
36 13 26
36 14 18
36 15 4
36 16 45
36 17 15
36 18 9
36 19 68
36 20 43
36 21 48
36 22 57
36 23 55
36 24 26
36 25 42
36 26 40
36 27 61
36 28 35
36 29 6
36 30 60
36 31 52
36 32 51
36 33 32
36 34 13
36 35 26
37 0 66
37 1 17
37 2 39
37 3 30
37 4 1
37 5 27
37 6 5
37 7 32
37 8 7
37 9 58
37 10 52
37 11 19
37 12 68
37 13 22
37 14 1
37 15 26
37 16 31
37 17 42
37 18 34
37 19 21
37 20 47
37 21 62
37 22 44
37 23 61
37 24 45
37 25 61
37 26 52
37 27 68
37 28 44
37 29 50
37 30 12
37 31 13
37 32 13
37 33 3
37 34 54
37 35 33
37 36 44
38 0 39
38 1 6
38 2 10
38 3 42
38 4 14
38 5 42
38 6 57
38 7 14
38 8 22
38 9 11
38 10 7
38 11 61
38 12 63
38 13 25
38 14 49
38 15 21
38 16 61
38 17 34
38 18 17
38 19 19
38 20 10
38 21 38
38 22 14
38 23 2
38 24 62
38 25 62
38 26 20
38 27 15
38 28 4
38 29 16
38 30 63
38 31 26
38 32 27
38 33 23
38 34 55
38 35 57
38 36 21
38 37 15
39 0 20
39 1 5
39 2 7
39 3 36
39 4 62
39 5 31
39 6 5
39 7 68
39 8 11
39 9 27
39 10 67
39 11 56
39 12 39
39 13 43
39 14 37
39 15 59
39 16 36
39 17 4
39 18 14
39 19 17
39 20 22
39 21 24
39 22 11
39 23 46
39 24 45
39 25 20
39 26 26
39 27 37
39 28 30
39 29 43
39 30 22
39 31 52
39 32 21
39 33 48
39 34 22
39 35 45
39 36 48
39 37 20
39 38 66
40 0 44
40 1 18
40 2 32
40 3 66
40 4 15
40 5 40
40 6 15
40 7 24
40 8 53
40 9 2
40 10 23
40 11 58
40 12 15
40 13 59
40 14 45
40 15 62
40 16 3
40 17 65
40 18 60
40 19 52
40 20 61
40 21 62
40 22 12
40 23 23
40 24 28
40 25 19
40 26 45
40 27 1
40 28 60
40 29 16
40 30 31
40 31 38
40 32 17
40 33 54
40 34 37
40 35 48
40 36 18
40 37 50
40 38 64
40 39 8
41 0 59
41 1 25
41 2 63
41 3 56
41 4 13
41 5 15
41 6 13
41 7 24
41 8 46
41 9 2
41 10 14
41 11 12
41 12 16
41 13 45
41 14 8
41 15 68
41 16 35
41 17 2
41 18 8
41 19 14
41 20 27
41 21 48
41 22 68
41 23 39
41 24 51
41 25 26
41 26 19
41 27 51
41 28 55
41 29 58
41 30 16
41 31 19
41 32 33
41 33 28
41 34 43
41 35 29
41 36 1
41 37 64
41 38 3
41 39 38
41 40 23
